20 64 
1 5 1
1 8 1
1 14 1
2 5 1
2 6 1
2 7 1
2 9 1
2 10 1
2 11 1
2 12 1
2 14 1
2 15 1
2 17 1
2 18 1
3 5 1
3 6 1
3 7 1
3 8 1
3 9 1
3 16 1
3 18 1
3 20 1
4 5 1
4 6 1
4 12 1
4 13 1
4 16 1
5 6 1
5 7 1
5 8 1
5 11 1
5 13 1
5 17 1
5 19 1
5 20 1
6 7 1
6 8 1
6 9 1
6 10 1
6 15 1
6 18 1
7 10 1
7 11 1
7 12 1
7 13 1
7 14 1
7 15 1
8 9 1
8 17 1
8 18 1
9 10 1
9 14 1
9 15 1
9 19 1
10 11 1
10 12 1
10 19 1
11 16 1
11 17 1
12 13 1
12 19 1
13 16 1
13 20 1
17 20 1
